cpu-bind=MASK - n2lcn0107, task  0  0 [1671010]: mask |--------|BBBB----||--------|--------||--------|--------||--------|--------||||--------|--------||--------|--------||--------|--------||--------|--------|  set
started at Fri Mar 17 12:18:50 CET 2023
Timecheck 9945313.536875743
Set parameter TokenServer to value "license3.uni-paderborn.de"
Warning: Gurobi version mismatch between Python 10.0.1 and C library 10.0.0
Timecheck 9945313.553024057
Timecheck 9945313.553231288
Timecheck 9945313.553262258
Timecheck 9945313.553283708


####################################################################################################
Solve scenario sce_3_26_3 with free vessel operation using the arc flow model
Vessels can omit ports, Demands cannot be rejected
####################################################################################################
Data preprocessing, load /upb/departments/pc2/groups/hpc-prf-winf4/dwetzel/SILSRP/inst_final/sce_3_26_3
and create additional sets and parameters
	|- Read vessel information, number of vessels:	10
	|- Read node information, number of nodes:		373
	|- Read arc information
		|- Number of sailing arcs:			1531
		|- Number of transshipment arcs:	724
	|- Read container information
		|- Number of demands:		740
		|- Number of empties (+/-):	159/156
	|- Create additional sets and parameters

Data preprocessing took 	00:00:00.267
####################################################################################################
Create linear model
Set parameter Threads to value 4
	|- Create variables, took	00:00:00.289
	|- Create objective, took	00:00:00.258
	|- Create constraints, took	00:00:01.117
	|- Load heuristic start

Creating model took	00:00:01.688
####################################################################################################
Fix start solution

Set parameter TimeLimit to value 8.6107887095512822e+04
Gurobi Optimizer version 10.0.0 build v10.0.0rc2 (linux64)

CPU model: AMD EPYC 7763 64-Core Processor, instruction set [SSE2|AVX|AVX2]
Thread count: 128 physical cores, 128 logical processors, using up to 4 threads

Optimize a model with 24117 rows, 83492 columns and 306187 nonzeros
Model fingerprint: 0x02e901ee
Variable types: 67080 continuous, 16412 integer (16412 binary)
Coefficient statistics:
  Matrix range     [1e+00, 1e+07]
  Objective range  [1e+00, 1e+00]
  Bounds range     [1e+00, 2e+03]
  RHS range        [1e+00, 2e+09]
Warning: Model contains large rhs
         Consider reformulating model or setting NumericFocus parameter
         to avoid numerical issues.
Found heuristic solution: objective 1.974348e+09
Presolve removed 21631 rows and 77340 columns
Presolve time: 0.18s
Presolved: 2486 rows, 6152 columns, 17978 nonzeros
Found heuristic solution: objective 2.276471e+08
Variable types: 5527 continuous, 625 integer (625 binary)

Root relaxation: objective 1.837151e+07, 832 iterations, 0.01 seconds (0.01 work units)

    Nodes    |    Current Node    |     Objective Bounds      |     Work
 Expl Unexpl |  Obj  Depth IntInf | Incumbent    BestBd   Gap | It/Node Time

*    0     0               0    1.837151e+07 1.8372e+07  0.00%     -    0s

Explored 1 nodes (832 simplex iterations) in 0.23 seconds (0.20 work units)
Thread count was 4 (of 128 available processors)

Solution count 3: 1.83715e+07 2.27647e+08 1.97435e+09 

Optimal solution found (tolerance 1.00e-04)
Best objective 1.837150900000e+07, best bound 1.837150900000e+07, gap 0.0000%

Fixing start solution took	00:00:01.949
####################################################################################################
####################################################################################################
Solve optimization model

Set parameter TimeLimit to value 8.6107653716061264e+04
Gurobi Optimizer version 10.0.0 build v10.0.0rc2 (linux64)

CPU model: AMD EPYC 7763 64-Core Processor, instruction set [SSE2|AVX|AVX2]
Thread count: 128 physical cores, 128 logical processors, using up to 4 threads

Optimize a model with 23768 rows, 83492 columns and 305838 nonzeros
Model fingerprint: 0x1badd2cc
Variable types: 67080 continuous, 16412 integer (16412 binary)
Coefficient statistics:
  Matrix range     [1e+00, 1e+07]
  Objective range  [1e+00, 1e+00]
  Bounds range     [1e+00, 2e+03]
  RHS range        [1e+00, 2e+09]
Warning: Model contains large rhs
         Consider reformulating model or setting NumericFocus parameter
         to avoid numerical issues.

MIP start from previous solve produced solution with objective 1.83715e+07 (0.17s)
Loaded MIP start from previous solve with objective 1.83715e+07

Presolve removed 4440 rows and 7362 columns
Presolve time: 0.49s
Presolved: 19328 rows, 76130 columns, 225583 nonzeros
Variable types: 61297 continuous, 14833 integer (14833 binary)
Deterministic concurrent LP optimizer: primal and dual simplex
Showing first log only...


Root simplex log...

Iteration    Objective       Primal Inf.    Dual Inf.      Time
   39497    2.6609325e+07   0.000000e+00   2.585740e+08      5s
   65599    1.9243713e+07   0.000000e+00   1.128278e+08     10s
   88210    1.7024572e+07   0.000000e+00   3.007519e+07     15s
  103074    1.5270317e+07   0.000000e+00   2.462329e+07     20s
  118785    1.4315481e+07   0.000000e+00   5.828696e+08     25s
  132755    1.3687556e+07   0.000000e+00   3.240226e+06     30s
  146549    1.3249465e+07   0.000000e+00   3.051762e+06     35s
  157439    1.3023132e+07   0.000000e+00   3.337654e+07     40s
  166115    1.2931256e+07   0.000000e+00   1.005566e+07     45s
  174618    1.2863013e+07   0.000000e+00   6.754413e+05     50s
  182778    1.2812203e+07   0.000000e+00   4.115539e+05     55s
  192980    1.2773903e+07   0.000000e+00   4.937957e+05     60s
  206580    1.2727889e+07   0.000000e+00   3.794713e+05     65s
  215080    1.2706969e+07   0.000000e+00   8.560793e+05     70s
  220689    1.2703898e+07   0.000000e+00   0.000000e+00     73s
Concurrent spin time: 26.42s

Solved with primal simplex
  220689    1.2703898e+07   0.000000e+00   0.000000e+00    100s

Root relaxation: objective 1.270390e+07, 220689 iterations, 99.23 seconds (78.83 work units)
Total elapsed time = 100.16s

    Nodes    |    Current Node    |     Objective Bounds      |     Work
 Expl Unexpl |  Obj  Depth IntInf | Incumbent    BestBd   Gap | It/Node Time

     0     0 1.2704e+07    0 2626 1.8372e+07 1.2704e+07  30.9%     -  101s
     0     0 1.2706e+07    0 2592 1.8372e+07 1.2706e+07  30.8%     -  106s
     0     0 1.2706e+07    0 2612 1.8372e+07 1.2706e+07  30.8%     -  106s
     0     0 1.2706e+07    0 2582 1.8372e+07 1.2706e+07  30.8%     -  110s
     0     0 1.2706e+07    0 2559 1.8372e+07 1.2706e+07  30.8%     -  117s
     0     0 1.2707e+07    0 2593 1.8372e+07 1.2707e+07  30.8%     -  121s
     0     0 1.2707e+07    0 2591 1.8372e+07 1.2707e+07  30.8%     -  121s
     0     0 1.2707e+07    0 2621 1.8372e+07 1.2707e+07  30.8%     -  123s
     0     0 1.3514e+07    0 2566 1.8372e+07 1.3514e+07  26.4%     -  319s
     0     0 1.3514e+07    0 2588 1.8372e+07 1.3514e+07  26.4%     -  320s
     0     0 1.3603e+07    0 2613 1.8372e+07 1.3603e+07  26.0%     -  445s
     0     0 1.3610e+07    0 2642 1.8372e+07 1.3610e+07  25.9%     -  476s
     0     0 1.3611e+07    0 2685 1.8372e+07 1.3611e+07  25.9%     -  503s
     0     0 1.3611e+07    0 2696 1.8372e+07 1.3611e+07  25.9%     -  505s
     0     0 1.3611e+07    0 2668 1.8372e+07 1.3611e+07  25.9%     -  511s
     0     0 1.3611e+07    0 2695 1.8372e+07 1.3611e+07  25.9%     -  513s
     0     0 1.3856e+07    0 2703 1.8372e+07 1.3856e+07  24.6%     -  734s
     0     0 1.3856e+07    0 2724 1.8372e+07 1.3856e+07  24.6%     -  735s
     0     0 1.3857e+07    0 2715 1.8372e+07 1.3857e+07  24.6%     -  747s
     0     0 1.3872e+07    0 2715 1.8372e+07 1.3872e+07  24.5%     -  761s
     0     0 1.3872e+07    0 2694 1.8372e+07 1.3872e+07  24.5%     -  763s
     0     0 1.3996e+07    0 2681 1.8372e+07 1.3996e+07  23.8%     - 1091s
     0     0 1.3996e+07    0 2713 1.8372e+07 1.3996e+07  23.8%     - 1136s
     0     0 1.3996e+07    0 2726 1.8372e+07 1.3996e+07  23.8%     - 1157s
     0     0 1.3996e+07    0 2653 1.8372e+07 1.3996e+07  23.8%     - 1200s
     0     0 1.3996e+07    0 2670 1.8372e+07 1.3996e+07  23.8%     - 1205s
     0     0 1.3996e+07    0 2664 1.8372e+07 1.3996e+07  23.8%     - 1205s
     0     0 1.3998e+07    0 2665 1.8372e+07 1.3998e+07  23.8%     - 1260s
     0     0 1.3998e+07    0 2642 1.8372e+07 1.3998e+07  23.8%     - 1261s
     0     0 1.4046e+07    0 2629 1.8372e+07 1.4046e+07  23.5%     - 1478s
     0     0 1.4046e+07    0 2641 1.8372e+07 1.4046e+07  23.5%     - 1479s
     0     0 1.4060e+07    0 2648 1.8372e+07 1.4060e+07  23.5%     - 1606s
     0     0 1.4060e+07    0 2709 1.8372e+07 1.4060e+07  23.5%     - 1608s
     0     0 1.4070e+07    0 2623 1.8372e+07 1.4070e+07  23.4%     - 1773s
     0     0 1.4071e+07    0 2695 1.8372e+07 1.4071e+07  23.4%     - 1810s
     0     0 1.4071e+07    0 2658 1.8372e+07 1.4071e+07  23.4%     - 1846s
     0     0 1.4072e+07    0 2740 1.8372e+07 1.4072e+07  23.4%     - 1904s
     0     0 1.4072e+07    0 2743 1.8372e+07 1.4072e+07  23.4%     - 1913s
     0     0 1.4072e+07    0 2672 1.8372e+07 1.4072e+07  23.4%     - 1952s
     0     0 1.4230e+07    0 2638 1.8372e+07 1.4230e+07  22.5%     - 2397s
     0     0 1.4230e+07    0 2730 1.8372e+07 1.4230e+07  22.5%     - 2430s
     0     0 1.4231e+07    0 2765 1.8372e+07 1.4231e+07  22.5%     - 2482s
     0     0 1.4231e+07    0 2743 1.8372e+07 1.4231e+07  22.5%     - 2490s
     0     0 1.4231e+07    0 2703 1.8372e+07 1.4231e+07  22.5%     - 2561s
     0     0 1.4231e+07    0 2708 1.8372e+07 1.4231e+07  22.5%     - 2582s
     0     0 1.4231e+07    0 2685 1.8372e+07 1.4231e+07  22.5%     - 2627s
     0     0 1.4301e+07    0 2702 1.8372e+07 1.4301e+07  22.2%     - 3072s
     0     0 1.4301e+07    0 2695 1.8372e+07 1.4301e+07  22.2%     - 3123s
     0     0 1.4328e+07    0 2768 1.8372e+07 1.4328e+07  22.0%     - 3366s
     0     0 1.4328e+07    0 2719 1.8372e+07 1.4328e+07  22.0%     - 3398s
     0     0 1.4339e+07    0 2771 1.8372e+07 1.4339e+07  22.0%     - 3504s
     0     0 1.4339e+07    0 2750 1.8372e+07 1.4339e+07  22.0%     - 3566s
     0     0 1.4342e+07    0 2713 1.8372e+07 1.4342e+07  21.9%     - 3641s
     0     0 1.4342e+07    0 2673 1.8372e+07 1.4342e+07  21.9%     - 3644s
     0     0 1.4344e+07    0 2773 1.8372e+07 1.4344e+07  21.9%     - 3686s
     0     0 1.4344e+07    0 2761 1.8372e+07 1.4344e+07  21.9%     - 3691s
     0     0 1.4344e+07    0 2714 1.8372e+07 1.4344e+07  21.9%     - 3722s
     0     0 1.4344e+07    0 2688 1.8372e+07 1.4344e+07  21.9%     - 3777s
     0     0 1.4345e+07    0 2797 1.8372e+07 1.4345e+07  21.9%     - 3879s
     0     0 1.4421e+07    0 2782 1.8372e+07 1.4421e+07  21.5%     - 4342s
     0     0 1.4421e+07    0 2841 1.8372e+07 1.4421e+07  21.5%     - 4424s
     0     0 1.4421e+07    0 2819 1.8372e+07 1.4421e+07  21.5%     - 4493s
     0     0 1.4421e+07    0 2856 1.8372e+07 1.4421e+07  21.5%     - 4498s
     0     0 1.4456e+07    0 2754 1.8372e+07 1.4456e+07  21.3%     - 5002s
     0     0 1.4456e+07    0 2751 1.8372e+07 1.4456e+07  21.3%     - 5048s
     0     0 1.4467e+07    0 2736 1.8372e+07 1.4467e+07  21.3%     - 5309s
     0     0 1.4467e+07    0 2756 1.8372e+07 1.4467e+07  21.3%     - 5356s
     0     0 1.4467e+07    0 2750 1.8372e+07 1.4467e+07  21.3%     - 5368s
     0     0 1.4467e+07    0 2805 1.8372e+07 1.4467e+07  21.3%     - 5389s
     0     0 1.4472e+07    0 2726 1.8372e+07 1.4472e+07  21.2%     - 5637s
     0     0 1.4472e+07    0 2679 1.8372e+07 1.4472e+07  21.2%     - 5700s
     0     0 1.4473e+07    0 2758 1.8372e+07 1.4473e+07  21.2%     - 5847s
     0     0 1.4473e+07    0 2721 1.8372e+07 1.4473e+07  21.2%     - 5929s
     0     0 1.4475e+07    0 2710 1.8372e+07 1.4475e+07  21.2%     - 5996s
     0     0 1.4475e+07    0 2717 1.8372e+07 1.4475e+07  21.2%     - 5997s
     0     0 1.4475e+07    0 2804 1.8372e+07 1.4475e+07  21.2%     - 6032s
     0     0 1.4559e+07    0 2705 1.8372e+07 1.4559e+07  20.8%     - 6369s
     0     0 1.4560e+07    0 2706 1.8372e+07 1.4560e+07  20.7%     - 6482s
     0     0 1.4560e+07    0 2712 1.8372e+07 1.4560e+07  20.7%     - 6484s
     0     0 1.4583e+07    0 2789 1.8372e+07 1.4583e+07  20.6%     - 6738s
     0     0 1.4592e+07    0 2841 1.8372e+07 1.4592e+07  20.6%     - 6902s
     0     0 1.4592e+07    0 2743 1.8372e+07 1.4592e+07  20.6%     - 6991s
     0     0 1.4595e+07    0 2753 1.8372e+07 1.4595e+07  20.6%     - 7226s
     0     0 1.4597e+07    0 2735 1.8372e+07 1.4597e+07  20.5%     - 7310s
     0     0 1.4597e+07    0 2763 1.8372e+07 1.4597e+07  20.5%     - 7344s
     0     0 1.4597e+07    0 2762 1.8372e+07 1.4597e+07  20.5%     - 7406s
     0     0 1.4628e+07    0 2707 1.8372e+07 1.4628e+07  20.4%     - 7729s
     0     0 1.4642e+07    0 2770 1.8372e+07 1.4642e+07  20.3%     - 7930s
     0     0 1.4642e+07    0 2806 1.8372e+07 1.4642e+07  20.3%     - 7936s
     0     0 1.4646e+07    0 2763 1.8372e+07 1.4646e+07  20.3%     - 8126s
     0     0 1.4647e+07    0 2693 1.8372e+07 1.4647e+07  20.3%     - 8200s
     0     0 1.4648e+07    0 2776 1.8372e+07 1.4648e+07  20.3%     - 8249s
     0     0 1.4648e+07    0 2776 1.8372e+07 1.4648e+07  20.3%     - 8249s
H    0     0                    1.836367e+07 1.4666e+07  20.1%     - 8467s
     0     0 1.4666e+07    0 2798 1.8364e+07 1.4666e+07  20.1%     - 8494s
     0     0 1.4666e+07    0 2801 1.8364e+07 1.4666e+07  20.1%     - 8500s
     0     0 1.4673e+07    0 2729 1.8364e+07 1.4673e+07  20.1%     - 8623s
     0     0 1.4673e+07    0 2748 1.8364e+07 1.4673e+07  20.1%     - 8631s
     0     0 1.4676e+07    0 2827 1.8364e+07 1.4676e+07  20.1%     - 8732s
     0     0 1.4676e+07    0 2778 1.8364e+07 1.4676e+07  20.1%     - 8871s
     0     0 1.4677e+07    0 2744 1.8364e+07 1.4677e+07  20.1%     - 8909s
     0     0 1.4677e+07    0 2719 1.8364e+07 1.4677e+07  20.1%     - 9033s
     0     0 1.4685e+07    0 2715 1.8364e+07 1.4685e+07  20.0%     - 9277s
     0     0 1.4688e+07    0 2747 1.8364e+07 1.4688e+07  20.0%     - 9374s
     0     0 1.4689e+07    0 2817 1.8364e+07 1.4689e+07  20.0%     - 9433s
     0     0 1.4689e+07    0 2810 1.8364e+07 1.4689e+07  20.0%     - 9434s
     0     0 1.4690e+07    0 2758 1.8364e+07 1.4690e+07  20.0%     - 9491s
     0     0 1.4690e+07    0 2737 1.8364e+07 1.4690e+07  20.0%     - 9492s
     0     0 1.4697e+07    0 2779 1.8364e+07 1.4697e+07  20.0%     - 9656s
     0     0 1.4697e+07    0 2711 1.8364e+07 1.4697e+07  20.0%     - 9723s
     0     0 1.4698e+07    0 2759 1.8364e+07 1.4698e+07  20.0%     - 9789s
     0     0 1.4698e+07    0 2721 1.8364e+07 1.4698e+07  20.0%     - 9792s
     0     0 1.4700e+07    0 2769 1.8364e+07 1.4700e+07  20.0%     - 9962s
     0     0 1.4700e+07    0 2739 1.8364e+07 1.4700e+07  19.9%     - 10047s
     0     0 1.4700e+07    0 2742 1.8364e+07 1.4700e+07  19.9%     - 10118s
     0     0 1.4703e+07    0 2698 1.8364e+07 1.4703e+07  19.9%     - 10652s
     0     0 1.4703e+07    0 2698 1.8364e+07 1.4703e+07  19.9%     - 10653s
     0     2 1.4703e+07    0 2690 1.8364e+07 1.4703e+07  19.9%     - 10826s
     1     4 1.4707e+07    1 2590 1.8364e+07 1.4703e+07  19.9% 30139 11157s
     3     8 1.4722e+07    2 2577 1.8364e+07 1.4707e+07  19.9% 68640 11858s
     7    12 1.4748e+07    3 2720 1.8364e+07 1.4722e+07  19.8% 85819 12309s
    11    16 1.4747e+07    3 2607 1.8364e+07 1.4723e+07  19.8% 83330 12983s
    15    20 1.4756e+07    4 2616 1.8364e+07 1.4730e+07  19.8% 83532 13075s
    19    24 1.4754e+07    4 2608 1.8364e+07 1.4730e+07  19.8% 75399 13246s
    23    29 1.4758e+07    5 2559 1.8364e+07 1.4734e+07  19.8% 65785 13602s
    28    34 1.4764e+07    6 2589 1.8364e+07 1.4734e+07  19.8% 58618 13697s
    33    38 1.4798e+07    6 2449 1.8364e+07 1.4734e+07  19.8% 54390 13983s
    37    44 1.4771e+07    7 2534 1.8364e+07 1.4734e+07  19.8% 51866 14136s
    43    49 1.4787e+07    7 2532 1.8364e+07 1.4734e+07  19.8% 47094 14308s
    48    58 1.4771e+07    8 2524 1.8364e+07 1.4734e+07  19.8% 44298 14463s
    57    63 1.4775e+07    9 2531 1.8364e+07 1.4734e+07  19.8% 39637 14908s
    62    68 1.4775e+07   10 2513 1.8364e+07 1.4734e+07  19.8% 39430 15497s
    67    77 1.4780e+07   11 2516 1.8364e+07 1.4734e+07  19.8% 39202 15719s
    76    90 1.4783e+07   12 2504 1.8364e+07 1.4734e+07  19.8% 36374 15985s
    89    95 1.4789e+07   16 2518 1.8364e+07 1.4734e+07  19.8% 33573 16558s
    94   102 1.4914e+07   16 2525 1.8364e+07 1.4734e+07  19.8% 34061 16738s
   101   115 1.4797e+07   17 2533 1.8364e+07 1.4734e+07  19.8% 32879 17019s
   114   126 1.4804e+07   18 2474 1.8364e+07 1.4734e+07  19.8% 30571 17310s
   125   134 1.4818e+07   20 2502 1.8364e+07 1.4734e+07  19.8% 29247 17784s
   133   148 1.4826e+07   21 2430 1.8364e+07 1.4734e+07  19.8% 29458 17992s
   147   161 1.4837e+07   26 2476 1.8364e+07 1.4734e+07  19.8% 27629 18257s
   160   168 1.4849e+07   30 2443 1.8364e+07 1.4734e+07  19.8% 26601 18937s
   167   185 1.5125e+07   32 2402 1.8364e+07 1.4734e+07  19.8% 27250 19203s
   184   200 1.4869e+07   34 2441 1.8364e+07 1.4734e+07  19.8% 25554 19645s
   199   219 1.4878e+07   36 2410 1.8364e+07 1.4734e+07  19.8% 24482 19934s
   218   236 1.4909e+07   40 2353 1.8364e+07 1.4734e+07  19.8% 23304 20223s
   235   259 1.4972e+07   44 2333 1.8364e+07 1.4734e+07  19.8% 22479 20544s
   258   279 1.4990e+07   48 2275 1.8364e+07 1.4734e+07  19.8% 21364 20913s
   278   297 1.5018e+07   52 2286 1.8364e+07 1.4734e+07  19.8% 20648 21564s
   296   311 1.5064e+07   55 2234 1.8364e+07 1.4734e+07  19.8% 20146 21897s
   310   333 1.5133e+07   58 2239 1.8364e+07 1.4734e+07  19.8% 20084 22338s
   332   353 1.5387e+07   60 2227 1.8364e+07 1.4734e+07  19.8% 19665 22691s
   352   379 1.5194e+07   63 2212 1.8364e+07 1.4734e+07  19.8% 19293 23123s
   378   402 1.5242e+07   67 2148 1.8364e+07 1.4734e+07  19.8% 18860 23599s
   405   416 infeasible   72      1.8364e+07 1.4734e+07  19.8% 18512 24005s
   421   440 1.5308e+07   74 2110 1.8364e+07 1.4734e+07  19.8% 18504 24429s
   445   463 1.5362e+07   76 2023 1.8364e+07 1.4734e+07  19.8% 18319 24961s
   468   495 1.5397e+07   81 2057 1.8364e+07 1.4734e+07  19.8% 18175 25430s
   502   529 1.5402e+07   83 2061 1.8364e+07 1.4734e+07  19.8% 17717 26007s
   536   563 1.5426e+07   88 2050 1.8364e+07 1.4734e+07  19.8% 17299 26617s
   570   582 1.5458e+07   91 1966 1.8364e+07 1.4734e+07  19.8% 17027 27226s
   589   618 1.5455e+07   93 1997 1.8364e+07 1.4734e+07  19.8% 17083 27801s
   625   648 1.5533e+07   97 1872 1.8364e+07 1.4734e+07  19.8% 16874 28360s
   655   667 1.5521e+07  102 1893 1.8364e+07 1.4734e+07  19.8% 16736 28891s
   676   683 1.5525e+07  105 1876 1.8364e+07 1.4734e+07  19.8% 16675 29961s
   692   730 1.5576e+07  114 1880 1.8364e+07 1.4734e+07  19.8% 16605 30819s
   741   765 1.5634e+07  122 1838 1.8364e+07 1.4734e+07  19.8% 16330 31486s
   777   812 1.5699e+07  125 1840 1.8364e+07 1.4734e+07  19.8% 16195 32205s
   826   861 1.5806e+07  130 1808 1.8364e+07 1.4734e+07  19.8% 15934 33044s
   875   894 1.5833e+07  130 1796 1.8364e+07 1.4734e+07  19.8% 15438 34095s
   908   953 1.5851e+07  137 1813 1.8364e+07 1.4734e+07  19.8% 15297 34808s
   967  1018 1.5925e+07  144 1756 1.8364e+07 1.4734e+07  19.8% 14891 35696s
  1032  1097 1.5950e+07  150 1703 1.8364e+07 1.4734e+07  19.8% 14665 36567s
  1113  1180 1.5993e+07  163 1634 1.8364e+07 1.4734e+07  19.8% 14285 37460s
  1196  1276 1.6078e+07  181 1629 1.8364e+07 1.4734e+07  19.8% 13966 38360s
  1292  1358 1.6103e+07  203 1690 1.8364e+07 1.4734e+07  19.8% 13562 39282s
  1376  1477 1.6397e+07  223 1584 1.8364e+07 1.4734e+07  19.8% 13371 40163s
  1495  1590 1.6662e+07  241 1511 1.8364e+07 1.4734e+07  19.8% 12930 41772s
  1608  1739 1.6795e+07  260 1490 1.8364e+07 1.4734e+07  19.8% 12558 45523s
  1757  1863 1.6927e+07  281 1455 1.8364e+07 1.4734e+07  19.8% 11931 49570s
  1885  2151 1.6981e+07  294 1365 1.8364e+07 1.4734e+07  19.8% 11355 50455s
  2193  2290 1.7529e+07  377 1267 1.8364e+07 1.4736e+07  19.8% 10165 51078s
  2351  2364 1.4824e+07   13 2495 1.8364e+07 1.4736e+07  19.8%  9977 51701s
  2431  2424 1.4909e+07   31 2324 1.8364e+07 1.4736e+07  19.8% 10444 53547s
  2491  2533 1.4939e+07   39 2270 1.8364e+07 1.4736e+07  19.8% 10732 55212s
  2602  2650 1.5020e+07   47 2231 1.8364e+07 1.4736e+07  19.8% 10757 56738s
  2721  2821 1.5165e+07   57 2107 1.8364e+07 1.4736e+07  19.8% 10766 57595s
  2898  2941 1.5107e+07   72 2053 1.8364e+07 1.4736e+07  19.8% 10564 58824s
  3036  2982 1.5168e+07   91 2057 1.8364e+07 1.4736e+07  19.8% 10603 60861s
  3082  2983 1.4981e+07   44 2698 1.8364e+07 1.4736e+07  19.8% 10834 62757s
  3084  2984 1.7748e+07  274 2551 1.8364e+07 1.4736e+07  19.8% 10827 62881s
  3085  2985 1.7336e+07  380 2554 1.8364e+07 1.4736e+07  19.8% 10823 63191s
  3086  2986 1.5004e+07   46 2577 1.8364e+07 1.4736e+07  19.8% 10820 63586s
  3087  2986 1.5791e+07  169 2603 1.8364e+07 1.4736e+07  19.8% 10816 63966s
  3088  2987 1.5740e+07  163 2692 1.8364e+07 1.4736e+07  19.8% 10813 64355s
  3089  2988 1.5140e+07   26 2715 1.8364e+07 1.4736e+07  19.8% 10809 64728s
  3090  2988 1.7245e+07  371 2687 1.8364e+07 1.4736e+07  19.8% 10806 65044s
  3091  2989 1.7525e+07  692 2711 1.8364e+07 1.4736e+07  19.8% 10802 65327s
  3092  2990 1.5005e+07   52 2704 1.8364e+07 1.4736e+07  19.8% 10799 65558s
  3093  2990 1.5597e+07  144 2742 1.8364e+07 1.4736e+07  19.8% 10795 65757s
  3094  2991 1.5155e+07   99 2637 1.8364e+07 1.4736e+07  19.8% 10792 66047s
  3095  2992 1.6278e+07  420 2657 1.8364e+07 1.4736e+07  19.8% 10788 66232s
  3096  2992 1.6033e+07  173 2704 1.8364e+07 1.4736e+07  19.8% 10785 66401s
  3097  2993 1.6421e+07  227 2712 1.8364e+07 1.4736e+07  19.8% 10781 66514s
  3098  2994 1.7152e+07  180 2767 1.8364e+07 1.4736e+07  19.8% 10778 66601s
  3099  2994 1.7636e+07  744 2690 1.8364e+07 1.4736e+07  19.8% 10774 66667s
  3100  2995 1.7501e+07  145 2685 1.8364e+07 1.4736e+07  19.8% 10771 66700s
  3101  2996 1.6995e+07  315 2670 1.8364e+07 1.4736e+07  19.8% 10767 66739s
  3102  2996 1.6944e+07  615 2665 1.8364e+07 1.4736e+07  19.8% 10764 66995s
  3103  2997 1.7868e+07  460 2632 1.8364e+07 1.4739e+07  19.7% 10761 67155s
  3104  2998 1.7761e+07  299 2663 1.8364e+07 1.4741e+07  19.7% 10757 67251s
  3105  2998 1.6480e+07  223 2654 1.8364e+07 1.4741e+07  19.7% 10754 67306s
  3106  2999 1.7470e+07  239 2640 1.8364e+07 1.4741e+07  19.7% 10750 67324s
  3107  3000 1.7113e+07  347 2650 1.8364e+07 1.4742e+07  19.7% 10747 67361s
  3108  3000 1.8256e+07  524 2569 1.8364e+07 1.4750e+07  19.7% 10743 67562s
  3109  3001 1.6879e+07  266 2638 1.8364e+07 1.4752e+07  19.7% 10740 67653s
  3110  3002 1.7329e+07  216 2649 1.8364e+07 1.4753e+07  19.7% 10736 67712s
  3111  3002 1.6081e+07  199 2588 1.8364e+07 1.4754e+07  19.7% 10733 67751s
  3112  3003 1.7295e+07  349 2617 1.8364e+07 1.4754e+07  19.7% 10729 67782s
  3113  3004 1.6526e+07  230 2617 1.8364e+07 1.4754e+07  19.7% 10726 67814s
  3114  3004 1.7048e+07  307 2575 1.8364e+07 1.4758e+07  19.6% 10723 67947s
  3115  3005 1.5066e+07   75 2655 1.8364e+07 1.4760e+07  19.6% 10719 68030s
  3116  3006 1.8225e+07  504 2608 1.8364e+07 1.4760e+07  19.6% 10716 68081s
  3117  3006 1.7905e+07  474 2573 1.8364e+07 1.4760e+07  19.6% 10712 68110s
  3118  3007 1.7335e+07  326 2583 1.8364e+07 1.4761e+07  19.6% 10709 68144s
  3119  3008 1.5075e+07   96 2660 1.8364e+07 1.4763e+07  19.6% 10705 68277s
  3120  3008 1.8243e+07  511 2677 1.8364e+07 1.4763e+07  19.6% 10702 68314s
  3121  3009 1.4810e+07   25 2655 1.8364e+07 1.4764e+07  19.6% 10698 68346s
  3122  3010 1.6835e+07  549 2655 1.8364e+07 1.4765e+07  19.6% 10695 68454s
  3123  3010 1.7375e+07  322 2653 1.8364e+07 1.4765e+07  19.6% 10692 68483s
  3124  3011 1.6925e+07  123 2577 1.8364e+07 1.4769e+07  19.6% 10688 68616s
  3125  3012 1.6845e+07  258 2575 1.8364e+07 1.4770e+07  19.6% 10685 68679s
  3126  3012 1.6759e+07  253 2572 1.8364e+07 1.4771e+07  19.6% 10681 68713s
  3127  3013 1.5066e+07   58 2602 1.8364e+07 1.4771e+07  19.6% 10678 68732s
  3128  3014 1.5397e+07   90 2595 1.8364e+07 1.4771e+07  19.6% 10675 68763s
  3129  3014 1.5261e+07   70 2666 1.8364e+07 1.4772e+07  19.6% 10671 68828s
  3130  3015 1.4806e+07   14 2631 1.8364e+07 1.4772e+07  19.6% 10668 68864s
  3131  3016 1.6241e+07  393 2616 1.8364e+07 1.4772e+07  19.6% 10664 68902s
  3132  3016 1.7962e+07  358 2608 1.8364e+07 1.4773e+07  19.6% 10661 68941s
  3133  3017 1.5155e+07   99 2579 1.8364e+07 1.4773e+07  19.6% 10658 68976s
  3134  3018 1.6799e+07  540 2605 1.8364e+07 1.4773e+07  19.6% 10654 69033s
  3135  3018 1.6112e+07  322 2616 1.8364e+07 1.4773e+07  19.6% 10651 69047s
  3136  3019 1.7615e+07  718 2583 1.8364e+07 1.4773e+07  19.6% 10647 69071s
  3137  3020 1.7190e+07  196 2605 1.8364e+07 1.4774e+07  19.5% 10644 69133s
  3138  3020 1.7060e+07  649 2595 1.8364e+07 1.4775e+07  19.5% 10641 69174s
  3139  3021 1.5089e+07  104 2589 1.8364e+07 1.4775e+07  19.5% 10637 69199s
  3140  3022 1.5516e+07   43 2569 1.8364e+07 1.4776e+07  19.5% 10634 69269s
  3141  3022 1.5387e+07   61 2587 1.8364e+07 1.4777e+07  19.5% 10630 69307s
  3142  3023 1.5949e+07  150 2598 1.8364e+07 1.4777e+07  19.5% 10627 69327s
  3143  3024 1.5051e+07   77 2597 1.8364e+07 1.4777e+07  19.5% 10624 69378s
  3144  3024 1.6078e+07  182 2589 1.8364e+07 1.4777e+07  19.5% 10620 69395s
  3145  3025 1.6030e+07  239 2625 1.8364e+07 1.4777e+07  19.5% 10617 69439s
  3146  3026 1.7656e+07  759 2638 1.8364e+07 1.4777e+07  19.5% 10613 69454s
  3147  3026 1.6279e+07  421 2578 1.8364e+07 1.4778e+07  19.5% 10610 69497s
  3148  3027 1.4873e+07   30 2542 1.8364e+07 1.4778e+07  19.5% 10607 69520s
  3149  3028 1.7624e+07  738 2518 1.8364e+07 1.4778e+07  19.5% 10603 69540s
  3150  3028 1.7057e+07  648 2520 1.8364e+07 1.4779e+07  19.5% 10600 69622s
  3151  3029 1.5113e+07  127 2601 1.8364e+07 1.4780e+07  19.5% 10597 69741s
  3152  3030 1.4797e+07    6 2594 1.8364e+07 1.4780e+07  19.5% 10593 69877s
  3153  3030 1.4780e+07   11 2621 1.8364e+07 1.4780e+07  19.5% 10590 69897s
  3154  3031 1.4872e+07   23 2636 1.8364e+07 1.4780e+07  19.5% 10587 69928s
  3155  3032 1.7592e+07  700 2641 1.8364e+07 1.4780e+07  19.5% 10583 69941s
  3156  3032 1.6504e+07  512 2591 1.8364e+07 1.4782e+07  19.5% 10580 69998s
  3157  3033 1.4850e+07   20 2566 1.8364e+07 1.4782e+07  19.5% 10576 70025s
  3158  3034 1.5866e+07  139 2628 1.8364e+07 1.4782e+07  19.5% 10573 70062s
  3159  3034 1.4981e+07   44 2612 1.8364e+07 1.4782e+07  19.5% 10570 70074s
  3160  3035 1.7418e+07  356 2581 1.8364e+07 1.4783e+07  19.5% 10566 70122s
  3161  3036 1.6037e+07  167 2572 1.8364e+07 1.4783e+07  19.5% 10563 70182s
  3162  3036 1.8225e+07  481 2572 1.8364e+07 1.4783e+07  19.5% 10560 70275s
  3163  3040 1.4783e+07   13 2523 1.8364e+07 1.4783e+07  19.5% 11171 70709s
  3165  3043 1.4788e+07   14 2543 1.8364e+07 1.4783e+07  19.5% 11194 71682s
  3169  3046 1.4794e+07   15 2574 1.8364e+07 1.4788e+07  19.5% 11280 72002s
  3173  3049 1.4801e+07   15 2526 1.8364e+07 1.4794e+07  19.4% 11343 72355s
  3177  3051 1.4802e+07   16 2464 1.8364e+07 1.4794e+07  19.4% 11401 72830s
  3181  3054 1.4915e+07   16 2464 1.8364e+07 1.4794e+07  19.4% 11498 76029s
  3185  3058 1.4805e+07   17 2516 1.8364e+07 1.4794e+07  19.4% 11647 76542s
  3190  3061 1.4891e+07   17 2478 1.8364e+07 1.4794e+07  19.4% 11724 78067s
  3195  3065 1.4808e+07   18 2469 1.8364e+07 1.4794e+07  19.4% 11791 79496s
  3201  3068 1.4839e+07   18 2446 1.8364e+07 1.4794e+07  19.4% 11940 80430s
  3206  3071 1.4827e+07   19 2557 1.8364e+07 1.4794e+07  19.4% 12003 80899s
  3210  3074 1.4822e+07   19 2498 1.8364e+07 1.4794e+07  19.4% 12046 82054s
  3212  3074 1.4890e+07   20 2426 1.8364e+07 1.4794e+07  19.4% 12091 82055s
  3215  3078 1.4831e+07   20 2485 1.8364e+07 1.4794e+07  19.4% 12138 82660s
  3220  3080 1.4838e+07   20 2509 1.8364e+07 1.4794e+07  19.4% 12193 83752s
  3224  3085 1.4836e+07   21 2505 1.8364e+07 1.4794e+07  19.4% 12260 84593s
  3230  3089 1.4861e+07   21 2457 1.8364e+07 1.4794e+07  19.4% 12347 85520s
  3236  3090 1.4849e+07   22 2487 1.8364e+07 1.4794e+07  19.4% 12395 86107s

Cutting planes:
  Gomory: 1
  Cover: 7
  Implied bound: 319
  Projected implied bound: 83
  Clique: 2
  MIR: 544
  Flow cover: 3060
  Zero half: 4
  RLT: 237
  Relax-and-lift: 847

Explored 3239 nodes (42856539 simplex iterations) in 86107.72 seconds (85658.24 work units)
Thread count was 4 (of 128 available processors)

Solution count 2: 1.83637e+07 1.83715e+07 

Time limit reached
Best objective 1.836366900000e+07, best bound 1.479374006260e+07, gap 19.4402%

Solving took 	23:55:07.734
####################################################################################################
####################################################################################################
####################################################################################################
Reached timelimit, but could find a feasible solution
####################################################################################################
Description                          Value
----------------------------  ------------
Objective (min)               18,363,669.0
Cost sailing                  15,450,605.0
Cost port visits               7,396,729.0
Cost transshipment (demands)     986,528.0
Cost transshipment (empties)     303,566.0
Penalty delayed demands        2,270,895.0
Revenue Empties                8,044,654.0
Penalty rejected demands               0.0
Rejected demands (%)                   0.0
Omitted ports (%)                     6.35
Gap (%)                              19.44
####################################################################################################
Export solution
####################################################################################################
Overall time 	23:55:10.103

real	1435m11.738s
user	3643m34.944s
sys	1m0.247s
finished at Sat Mar 18 12:14:02 CET 2023
